c Generated map
c Size: 10 * 10, weights in range: 1 to 10, walls: True, with ratio 0.05
c dim 2 of 6
c
p sp 100 161
c graph contains 100 nodes and 161 arcs
c
a 1 11 10
a 11 1 10
a 1 2 4
a 2 1 4
a 2 12 7
a 12 2 7
a 2 3 10
a 3 2 10
a 3 13 10
a 13 3 10
a 3 4 5
a 4 3 5
a 4 14 10
a 14 4 10
a 4 5 1
a 5 4 1
a 5 15 10
a 15 5 10
a 5 6 4
a 6 5 4
a 6 16 1
a 16 6 1
a 6 7 4
a 7 6 4
a 7 17 3
a 17 7 3
a 7 8 1
a 8 7 1
a 8 18 7
a 18 8 7
a 8 9 10
a 9 8 10
a 9 19 6
a 19 9 6
a 9 10 9
a 10 9 9
a 10 20 10
a 20 10 10
a 11 21 1
a 21 11 1
a 11 12 6
a 12 11 6
a 12 22 5
a 22 12 5
a 12 13 4
a 13 12 4
a 13 23 10
a 23 13 10
a 13 14 5
a 14 13 5
a 14 24 8
a 24 14 8
a 14 15 6
a 15 14 6
a 15 25 8
a 25 15 8
a 15 16 8
a 16 15 8
a 16 17 5
a 17 16 5
a 17 27 7
a 27 17 7
a 17 18 10
a 18 17 10
a 18 19 2
a 19 18 2
a 19 29 7
a 29 19 7
a 19 20 8
a 20 19 8
a 20 30 9
a 30 20 9
a 21 31 1
a 31 21 1
a 21 22 8
a 22 21 8
a 22 32 7
a 32 22 7
a 22 23 8
a 23 22 8
a 23 33 3
a 33 23 3
a 23 24 2
a 24 23 2
a 24 34 4
a 34 24 4
a 24 25 7
a 25 24 7
a 25 35 4
a 35 25 4
a 27 37 1
a 37 27 1
a 29 39 5
a 39 29 5
a 29 30 9
a 30 29 9
a 30 40 5
a 40 30 5
a 31 41 9
a 41 31 9
a 31 32 3
a 32 31 3
a 32 42 7
a 42 32 7
a 32 33 4
a 33 32 4
a 33 43 10
a 43 33 10
a 33 34 2
a 34 33 2
a 34 44 9
a 44 34 9
a 34 35 2
a 35 34 2
a 35 45 3
a 45 35 3
a 35 36 1
a 36 35 1
a 36 46 3
a 46 36 3
a 36 37 9
a 37 36 9
a 37 47 1
a 47 37 1
a 37 38 9
a 38 37 9
a 38 48 3
a 48 38 3
a 38 39 2
a 39 38 2
a 39 49 2
a 49 39 2
a 39 40 9
a 40 39 9
a 41 51 4
a 51 41 4
a 41 42 2
a 42 41 2
a 42 52 10
a 52 42 10
a 42 43 7
a 43 42 7
a 43 53 7
a 53 43 7
a 43 44 8
a 44 43 8
a 44 54 1
a 54 44 1
a 44 45 2
a 45 44 2
a 45 55 1
a 55 45 1
a 45 46 4
a 46 45 4
a 46 56 8
a 56 46 8
a 46 47 2
a 47 46 2
a 47 57 3
a 57 47 3
a 47 48 5
a 48 47 5
a 48 58 3
a 58 48 3
a 48 49 6
a 49 48 6
a 51 61 5
a 61 51 5
a 51 52 7
a 52 51 7
a 52 62 10
a 62 52 10
a 52 53 3
a 53 52 3
a 53 63 7
a 63 53 7
a 53 54 2
a 54 53 2
a 54 64 5
a 64 54 5
a 54 55 10
a 55 54 10
a 55 65 7
a 65 55 7
a 55 56 7
a 56 55 7
a 56 66 1
a 66 56 1
a 56 57 7
a 57 56 7
a 57 67 5
a 67 57 5
a 57 58 4
a 58 57 4
a 58 68 8
a 68 58 8
a 60 70 7
a 70 60 7
a 61 71 4
a 71 61 4
a 61 62 9
a 62 61 9
a 62 72 6
a 72 62 6
a 62 63 6
a 63 62 6
a 63 73 5
a 73 63 5
a 63 64 6
a 64 63 6
a 64 74 6
a 74 64 6
a 64 65 4
a 65 64 4
a 65 75 7
a 75 65 7
a 65 66 7
a 66 65 7
a 66 76 2
a 76 66 2
a 66 67 5
a 67 66 5
a 67 68 3
a 68 67 3
a 68 78 7
a 78 68 7
a 68 69 5
a 69 68 5
a 69 79 6
a 79 69 6
a 69 70 5
a 70 69 5
a 70 80 6
a 80 70 6
a 71 81 6
a 81 71 6
a 71 72 1
a 72 71 1
a 72 82 9
a 82 72 9
a 72 73 1
a 73 72 1
a 73 83 10
a 83 73 10
a 73 74 2
a 74 73 2
a 74 84 2
a 84 74 2
a 74 75 7
a 75 74 7
a 75 85 5
a 85 75 5
a 75 76 9
a 76 75 9
a 76 86 3
a 86 76 3
a 78 88 3
a 88 78 3
a 78 79 3
a 79 78 3
a 79 89 10
a 89 79 10
a 79 80 1
a 80 79 1
a 80 90 5
a 90 80 5
a 81 91 3
a 91 81 3
a 81 82 1
a 82 81 1
a 82 92 9
a 92 82 9
a 82 83 1
a 83 82 1
a 83 93 3
a 93 83 3
a 83 84 2
a 84 83 2
a 84 94 8
a 94 84 8
a 84 85 9
a 85 84 9
a 85 95 7
a 95 85 7
a 85 86 4
a 86 85 4
a 86 96 1
a 96 86 1
a 86 87 8
a 87 86 8
a 87 97 1
a 97 87 1
a 87 88 8
a 88 87 8
a 88 98 2
a 98 88 2
a 88 89 5
a 89 88 5
a 89 99 4
a 99 89 4
a 89 90 9
a 90 89 9
a 90 100 1
a 100 90 1
a 91 92 7
a 92 91 7
a 92 93 2
a 93 92 2
a 93 94 3
a 94 93 3
a 94 95 6
a 95 94 6
a 95 96 1
a 96 95 1
a 96 97 9
a 97 96 9
a 97 98 6
a 98 97 6
a 98 99 3
a 99 98 3
a 99 100 7
a 100 99 7
